Route #1: 80 94 56 21
Route #2: 79 11 85 30
Route #3: 27 97 19
Route #4: 44 67 88 40
Route #5: 57 72 36 29 43 45 2 7
Route #6: 75 93
Route #7: 20 41 22 15
Route #8: 34 64 96 48 26 47 38
Route #9: 100 61 23
Route #10: 74 13 4
Route #11: 28 42 78 65 25
Route #12: 32 33 53 73 95 24
Route #13: 58 12 5
Route #14: 14 49 6 37 87
Route #15: 71 62 99 98 89
Route #16: 59 60 82
Route #17: 92 9 86
Route #18: 83 51 81
Route #19: 66 84 90 68
Route #20: 3 77 63
Route #21: 54 70 1
Route #22: 31 46 35
Route #23: 69 16 55 76
Route #24: 17 8
Route #25: 39 10 18
Route #26: 50 91 52
Cost 27591.0000
Time 16.0003